70
1 0 2
3 0 11
3 1 10
4 2 9
5 3 12
5 4 9
6 2 4
6 5 11
7 0 7
7 1 10
7 2 12
7 4 10
7 5 6
7 6 4
8 0 11
8 1 8
8 3 9
8 4 12
8 5 4
8 7 4
9 0 11
9 7 11
9 8 11
10 0 6
10 1 11
10 3 2
10 4 3
10 5 8
10 9 7
11 1 8
11 4 6
11 5 10
11 6 6
11 7 3
11 8 8
12 0 1
12 3 2
12 7 2
12 8 12
12 10 11
12 11 5
13 1 2
13 8 10
13 10 8
13 11 3
14 0 2
14 2 5
14 3 12
14 4 9
14 5 11
14 7 7
14 8 3
14 10 2
15 0 4
15 1 2
15 12 9
16 0 5
16 1 1
16 3 5
16 4 3
16 10 11
16 12 4
16 14 6
17 0 3
17 1 12
17 3 5
17 4 7
17 5 1
17 6 1
18 0 5
18 3 3
18 6 9
18 9 12
18 11 1
18 12 4
18 14 9
18 15 8
18 17 3
19 1 1
19 4 4
19 6 10
19 7 10
19 8 12
19 9 1
19 14 8
19 16 11
19 18 9
20 0 4
20 6 11
20 7 4
20 8 1
20 10 9
20 11 1
20 13 4
20 14 8
20 15 2
20 16 12
20 17 4
21 2 7
21 5 2
21 6 8
21 9 4
21 11 4
21 12 3
21 13 2
21 15 6
21 19 5
22 1 5
22 4 9
22 5 1
22 7 9
22 9 2
22 10 9
22 11 3
22 19 7
23 1 1
23 3 4
23 4 8
23 7 1
23 9 3
23 11 6
23 13 12
23 16 1
23 20 3
23 21 7
24 0 2
24 2 9
24 8 5
24 10 6
24 13 11
24 15 10
24 16 11
24 17 8
24 21 9
24 22 4
25 0 11
25 1 10
25 2 11
25 6 3
25 9 1
25 11 10
25 16 2
25 17 4
25 18 9
25 22 2
26 0 12
26 1 4
26 4 11
26 5 11
26 7 4
26 9 6
26 10 2
26 13 4
26 14 2
26 15 9
26 17 5
26 18 9
26 22 1
26 25 6
27 1 12
27 4 12
27 5 3
27 7 3
27 9 6
27 10 5
27 13 9
27 17 6
27 22 1
27 24 10
27 25 11
27 26 11
28 0 8
28 1 5
28 4 4
28 5 11
28 9 8
28 12 4
28 13 5
28 14 3
28 19 5
28 21 3
28 23 8
28 25 11
28 26 10
28 27 12
29 3 1
29 7 8
29 9 1
29 10 9
29 11 8
29 14 4
29 15 2
29 19 9
29 20 11
29 21 11
29 24 1
29 28 6
30 0 1
30 3 12
30 6 6
30 11 8
30 13 5
30 15 7
30 19 9
30 21 4
30 22 5
30 24 12
30 25 7
30 26 4
30 28 10
30 29 1
31 1 6
31 4 8
31 5 12
31 6 2
31 7 5
31 8 11
31 11 12
31 12 1
31 13 12
31 14 8
31 16 9
31 18 6
31 19 10
31 20 1
31 22 3
31 26 9
31 27 2
31 28 1
31 30 1
32 4 8
32 5 7
32 6 11
32 12 6
32 13 8
32 15 4
32 19 5
32 22 2
32 23 7
32 26 2
32 30 1
33 1 8
33 2 12
33 3 2
33 6 5
33 8 4
33 10 7
33 11 11
33 12 11
33 13 3
33 16 5
33 18 7
33 20 7
33 21 12
33 22 6
33 23 4
33 25 6
33 26 1
33 27 12
33 29 12
33 32 9
34 0 1
34 1 8
34 4 7
34 6 12
34 11 1
34 12 5
34 14 7
34 15 8
34 19 7
34 23 10
34 24 8
34 25 8
34 26 12
34 29 2
34 31 4
35 2 4
35 4 2
35 7 5
35 8 10
35 10 4
35 12 10
35 13 3
35 14 1
35 16 1
35 17 10
35 18 8
35 19 1
35 20 9
35 21 5
35 24 9
35 26 8
35 30 1
35 32 4
36 0 8
36 2 3
36 3 6
36 4 4
36 8 7
36 10 3
36 11 3
36 12 2
36 14 11
36 15 9
36 16 10
36 20 5
36 21 9
36 22 11
36 25 12
36 35 12
37 0 10
37 1 8
37 4 5
37 7 7
37 8 5
37 11 1
37 13 1
37 14 10
37 17 12
37 19 5
37 23 4
37 25 5
37 29 8
37 30 5
37 33 2
37 35 2
38 1 10
38 3 1
38 5 4
38 8 1
38 9 1
38 13 12
38 14 1
38 21 3
38 23 7
38 25 11
38 27 9
38 29 12
38 31 1
38 32 12
38 35 7
38 36 5
38 37 9
39 0 4
39 2 9
39 3 4
39 5 5
39 6 5
39 10 11
39 11 3
39 14 10
39 17 8
39 22 6
39 23 2
39 24 12
39 25 11
39 27 7
39 32 7
39 33 3
39 34 4
39 36 7
40 0 3
40 3 12
40 6 2
40 7 8
40 11 3
40 13 7
40 14 2
40 15 11
40 16 5
40 17 1
40 18 11
40 20 6
40 25 10
40 27 8
40 28 2
40 29 5
40 32 10
40 33 7
40 34 2
40 35 1
40 37 2
40 38 4
41 0 6
41 2 7
41 6 1
41 8 10
41 9 10
41 10 11
41 12 11
41 13 7
41 16 3
41 20 5
41 23 10
41 24 9
41 25 2
41 26 11
41 27 1
41 28 12
41 31 1
41 34 10
41 35 10
41 37 1
41 38 4
42 0 11
42 2 7
42 3 6
42 4 10
42 5 4
42 7 4
42 9 10
42 10 1
42 16 7
42 18 10
42 20 10
42 21 6
42 22 7
42 24 5
42 25 8
42 28 7
42 31 7
42 32 6
42 33 10
42 35 5
42 37 5
42 38 9
43 1 9
43 2 12
43 3 12
43 4 11
43 5 10
43 9 9
43 11 7
43 12 7
43 13 9
43 15 1
43 16 9
43 18 3
43 23 11
43 24 8
43 25 6
43 29 11
43 32 10
43 34 9
43 35 1
43 36 2
43 37 5
43 39 5
43 40 5
44 0 11
44 1 2
44 2 8
44 6 1
44 10 1
44 11 8
44 12 5
44 13 10
44 15 4
44 18 5
44 19 1
44 21 6
44 22 1
44 23 5
44 27 7
44 28 12
44 30 8
44 31 7
44 32 6
44 34 11
44 36 4
44 38 1
44 40 12
44 41 7
44 42 8
45 0 6
45 3 11
45 4 12
45 5 1
45 8 6
45 9 11
45 12 6
45 20 2
45 22 9
45 23 3
45 26 8
45 27 11
45 29 4
45 30 11
45 31 4
45 32 12
45 34 12
45 35 4
45 37 4
45 39 7
45 41 12
45 43 11
46 1 6
46 2 2
46 7 7
46 9 2
46 10 5
46 13 11
46 14 4
46 16 7
46 18 8
46 20 11
46 21 6
46 24 9
46 25 7
46 27 2
46 29 7
46 30 6
46 32 7
46 33 9
46 36 2
46 37 7
46 38 9
46 43 5
46 45 5
47 3 1
47 6 8
47 7 11
47 8 4
47 9 6
47 16 11
47 19 4
47 22 5
47 24 2
47 25 8
47 26 7
47 29 11
47 30 2
47 31 11
47 32 11
47 33 12
47 38 8
47 39 7
47 40 7
47 42 2
47 43 1
47 44 5
47 45 9
48 0 2
48 2 3
48 4 8
48 5 9
48 6 7
48 7 11
48 11 4
48 13 3
48 15 7
48 18 12
48 19 5
48 20 10
48 27 11
48 31 9
48 34 3
48 35 10
48 36 5
48 38 10
48 40 2
48 45 6
48 46 10
49 0 3
49 1 1
49 2 11
49 3 7
49 5 2
49 6 10
49 13 9
49 16 5
49 18 5
49 20 5
49 21 8
49 22 11
49 23 12
49 26 2
49 28 8
49 32 4
49 33 12
49 37 6
49 39 6
49 41 8
49 44 12
49 46 4
49 47 1
49 48 8
50 0 4
50 1 12
50 2 10
50 7 12
50 8 3
50 11 6
50 12 11
50 16 2
50 17 7
50 19 10
50 22 7
50 25 2
50 26 6
50 29 10
50 32 10
50 35 6
50 36 7
50 37 4
50 39 6
50 40 5
50 42 8
50 43 6
50 45 1
50 46 2
51 1 5
51 2 10
51 3 4
51 6 2
51 7 8
51 10 10
51 11 3
51 12 12
51 13 3
51 14 10
51 15 11
51 23 5
51 24 12
51 25 3
51 27 9
51 28 5
51 29 6
51 31 3
51 33 11
51 34 2
51 35 12
51 36 11
51 38 4
51 39 7
51 40 5
51 42 6
51 43 12
51 46 2
51 47 12
51 48 6
51 49 8
51 50 7
52 0 8
52 2 12
52 3 10
52 4 12
52 8 7
52 9 10
52 10 1
52 11 2
52 12 1
52 15 7
52 17 10
52 19 10
52 20 5
52 21 8
52 26 3
52 27 5
52 29 3
52 34 12
52 39 9
52 40 8
52 41 2
52 42 10
52 46 3
52 48 9
52 51 5
53 1 1
53 4 7
53 7 3
53 10 8
53 12 2
53 13 3
53 14 9
53 16 8
53 23 3
53 26 6
53 27 4
53 30 11
53 32 11
53 33 12
53 34 2
53 36 5
53 40 9
53 41 4
53 45 8
53 46 12
53 49 3
53 50 3
54 0 7
54 1 8
54 2 3
54 3 6
54 4 4
54 5 1
54 7 5
54 9 12
54 10 10
54 11 3
54 13 8
54 15 8
54 16 2
54 17 3
54 20 2
54 22 9
54 24 1
54 25 2
54 27 10
54 28 8
54 29 6
54 34 11
54 39 11
54 40 9
54 42 6
54 43 10
54 45 7
54 47 10
54 51 10
54 52 3
54 53 2
55 1 7
55 3 5
55 4 8
55 14 4
55 15 6
55 16 9
55 17 3
55 22 4
55 24 4
55 30 8
55 31 11
55 34 1
55 35 4
55 36 12
55 38 5
55 40 4
55 41 7
55 42 3
55 47 9
55 48 3
55 51 8
55 53 3
55 54 3
56 1 7
56 3 11
56 10 3
56 12 2
56 14 7
56 16 8
56 17 3
56 18 9
56 20 2
56 23 3
56 28 8
56 32 8
56 33 4
56 35 2
56 40 11
56 42 12
56 46 7
56 47 9
56 50 1
56 52 12
56 53 9
56 54 12
56 55 4
57 1 7
57 8 6
57 9 9
57 10 11
57 11 7
57 15 1
57 16 1
57 17 6
57 19 6
57 27 5
57 28 4
57 31 7
57 33 10
57 34 9
57 36 3
57 37 11
57 39 4
57 40 1
57 42 2
57 43 2
57 44 1
57 47 12
57 52 1
57 54 5
57 55 1
57 56 7
58 1 2
58 2 1
58 3 12
58 4 7
58 5 2
58 7 10
58 8 10
58 11 4
58 13 2
58 14 8
58 16 8
58 21 11
58 24 1
58 25 5
58 26 10
58 29 11
58 30 4
58 33 12
58 36 11
58 37 10
58 39 1
58 42 3
58 44 9
58 46 7
58 52 2
58 56 3
58 57 10
59 1 3
59 5 12
59 7 2
59 8 5
59 11 3
59 12 1
59 14 1
59 15 5
59 17 1
59 20 1
59 21 12
59 22 2
59 23 12
59 29 8
59 31 9
59 33 3
59 34 6
59 36 2
59 39 11
59 40 7
59 41 8
59 42 12
59 43 2
59 44 3
59 46 9
59 49 7
59 54 9
59 56 8
59 58 7
60 0 10
60 1 5
60 2 7
60 6 4
60 8 11
60 10 9
60 11 10
60 12 2
60 13 4
60 14 1
60 16 10
60 17 1
60 18 9
60 19 9
60 23 12
60 25 9
60 26 2
60 27 2
60 29 3
60 31 4
60 32 11
60 33 4
60 35 11
60 37 9
60 38 11
60 43 5
60 44 3
60 45 1
60 48 11
60 49 12
60 51 3
60 53 5
60 54 1
60 55 7
60 59 6
61 2 11
61 3 10
61 4 9
61 5 3
61 6 1
61 8 2
61 9 7
61 12 11
61 13 1
61 15 11
61 17 7
61 25 9
61 28 2
61 29 11
61 30 5
61 33 6
61 35 2
61 37 6
61 38 3
61 41 8
61 45 2
61 48 1
61 49 5
61 51 6
61 53 10
61 55 9
61 56 12
61 57 8
61 58 3
61 59 6
62 0 3
62 2 7
62 4 11
62 5 9
62 6 2
62 7 6
62 9 2
62 10 11
62 11 5
62 15 6
62 16 2
62 18 5
62 19 11
62 21 6
62 22 10
62 23 8
62 25 9
62 28 12
62 30 4
62 31 7
62 32 10
62 33 9
62 35 7
62 40 5
62 42 8
62 43 7
62 44 7
62 46 7
62 48 4
62 52 10
62 55 12
62 58 6
63 1 3
63 3 12
63 4 4
63 9 7
63 10 10
63 12 6
63 13 6
63 15 8
63 17 9
63 18 9
63 22 2
63 23 5
63 28 10
63 29 3
63 31 9
63 35 10
63 38 6
63 40 10
63 43 8
63 44 12
63 46 8
63 47 12
63 53 4
63 54 3
63 55 11
63 56 11
63 57 1
63 58 12
63 62 5
64 2 7
64 4 9
64 8 10
64 9 1
64 12 3
64 13 6
64 15 7
64 20 7
64 24 3
64 25 1
64 26 2
64 28 9
64 29 12
64 33 11
64 35 10
64 38 6
64 43 12
64 45 4
64 46 8
64 51 5
64 52 1
64 54 2
64 56 3
64 58 5
64 59 10
64 61 4
65 5 6
65 9 6
65 10 11
65 11 10
65 15 11
65 16 9
65 17 9
65 18 4
65 19 12
65 26 12
65 28 7
65 29 1
65 30 3
65 31 4
65 33 10
65 34 10
65 37 11
65 38 6
65 40 3
65 44 3
65 45 6
65 46 7
65 47 10
65 49 6
65 50 10
65 51 7
65 52 6
65 53 10
65 55 3
65 56 7
65 57 6
65 58 6
65 59 5
65 60 6
65 61 5
65 62 7
65 63 9
66 1 8
66 5 5
66 7 1
66 8 7
66 9 9
66 12 6
66 13 3
66 14 4
66 20 12
66 21 1
66 23 3
66 24 11
66 26 8
66 27 7
66 28 10
66 29 5
66 32 7
66 33 12
66 34 10
66 35 5
66 36 3
66 37 8
66 40 2
66 41 11
66 42 12
66 43 2
66 46 2
66 49 9
66 50 7
66 51 10
66 52 1
66 53 7
66 54 5
66 61 5
66 62 12
66 64 2
67 2 12
67 6 8
67 7 4
67 8 5
67 10 3
67 13 3
67 14 2
67 15 6
67 17 10
67 18 5
67 19 8
67 22 3
67 26 1
67 28 2
67 29 2
67 31 4
67 33 1
67 38 4
67 39 1
67 40 11
67 41 5
67 42 10
67 43 3
67 44 12
67 45 12
67 49 1
67 50 9
67 51 5
67 54 11
67 55 4
67 57 10
67 60 8
67 61 12
67 62 8
67 64 10
68 1 2
68 7 5
68 8 9
68 10 4
68 12 8
68 13 6
68 14 1
68 16 11
68 18 3
68 19 1
68 20 5
68 21 4
68 23 2
68 24 9
68 25 2
68 26 4
68 27 6
68 30 2
68 31 7
68 32 9
68 35 8
68 37 12
68 38 6
68 42 10
68 43 2
68 44 9
68 46 4
68 48 11
68 49 10
68 52 8
68 53 9
68 54 4
68 55 5
68 58 12
68 59 10
68 63 12
68 64 3
68 65 4
68 66 2
68 67 6
69 0 2
69 2 2
69 3 10
69 7 10
69 8 11
69 9 9
69 11 7
69 17 11
69 20 12
69 22 4
69 26 3
69 27 6
69 29 1
69 32 7
69 35 9
69 36 4
69 39 7
69 40 6
69 41 11
69 42 3
69 48 7
69 50 1
69 51 11
69 52 1
69 56 7
69 57 10
69 58 3
69 61 5
69 63 7
69 65 12
69 66 5
